data/solutions/planning/wellformed/moderate/weighting/wellformed_moderate_instance71_cplex.sol
Elapsed time: 2.53
Nodes explored: 9390
Nodes left: 0
Relative gap: 0.0
Upper bound: 316379.0
Lower bound: 316379
C[0]=10206.0
C[1]=10206.0
C[2]=10205.0
C[3]=10205.0
C[4]=10205.0
y[0]=2
y[1]=0
y[2]=1
y[3]=0
y[4]=2
y[5]=3
y[6]=4
y[7]=0
y[8]=0
y[9]=4
y[10]=4
y[11]=2
y[12]=4
y[13]=2
y[14]=4
y[15]=4
y[16]=2
y[17]=3
y[18]=4
y[19]=3
y[20]=1
y[21]=1
y[22]=1
y[23]=0
y[24]=2
y[25]=4
y[26]=0
y[27]=1
y[28]=1
y[29]=2
y[30]=0
y[31]=3
y[32]=3
y[33]=1
y[34]=1
y[35]=3
y[36]=1
y[37]=3
y[38]=1
y[39]=2
y[40]=0
y[41]=1
y[42]=3
y[43]=0
y[44]=3
y[45]=3
y[46]=0
y[47]=1
y[48]=4
y[49]=2
